Copyright (C) 2013-2015, Filipe Brandao
Build (method = -2)
  #dp: 674
  Step-3' Graph: 44 vertices and 357 arcs (0.00s)
  Step-4' Graph: 42 vertices and 353 arcs (0.00s)
  #V4/#V3 = 0.95
  #A4/#A3 = 0.99
Ready! (0.00s)
Optimize a model with 71 rows, 354 columns and 982 nonzeros
Found heuristic solution: objective 48
Presolve removed 14 rows and 16 columns
Presolve time: 0.00s
Presolved: 57 rows, 338 columns, 930 nonzeros
Variable types: 0 continuous, 338 integer (118 binary)
Optimize a model with 57 rows, 338 columns and 930 nonzeros
Presolved: 57 rows, 338 columns, 930 nonzeros

Root barrier log...

Ordering time: 0.00s

Barrier statistics:
 AA' NZ     : 5.360e+02
 Factor NZ  : 1.208e+03
 Factor Ops : 3.056e+04 (less than 1 second per iteration)
 Threads    : 1

                  Objective                Residual
Iter       Primal          Dual         Primal    Dual     Compl     Time
   0   4.93568429e+02 -1.21559750e+03  1.17e+03 1.09e-01  1.26e+01     0s
   1   1.34641835e+02 -4.08654672e+02  1.31e+02 1.44e-15  1.80e+00     0s
   2   4.92742461e+01 -8.97547390e+01  1.01e+01 9.44e-16  2.57e-01     0s
   3   3.04555217e+01  2.47721541e+00  3.19e-01 8.17e-16  4.17e-02     0s
   4   2.55733139e+01  1.33659887e+01  6.23e-02 9.63e-16  1.79e-02     0s
   5   2.49744413e+01  1.57266282e+01  4.96e-02 9.37e-16  1.36e-02     0s
   6   2.32802716e+01  1.95959715e+01  1.83e-02 8.88e-16  5.40e-03     0s
   7   2.23774620e+01  2.07093310e+01  4.18e-03 1.02e-15  2.44e-03     0s
   8   2.21795382e+01  2.18035719e+01  6.29e-04 1.09e-15  5.49e-04     0s
   9   2.21269527e+01  2.21115905e+01  8.39e-14 1.30e-15  2.24e-05     0s
  10   2.21250020e+01  2.21249866e+01  2.40e-14 1.16e-15  2.24e-08     0s
  11   2.21250000e+01  2.21250000e+01  1.20e-14 1.22e-15  2.32e-14     0s

Barrier solved model in 11 iterations and 0.00 seconds
Optimal objective 2.21250000e+01


Root relaxation: objective 2.212500e+01, 148 iterations, 0.00 seconds

    Nodes    |    Current Node    |     Objective Bounds      |     Work
 Expl Unexpl |  Obj  Depth IntInf | Incumbent    BestBd   Gap | It/Node Time

     0     0   22.12500    0   18   48.00000   22.12500  53.9%     -    0s
H    0     0                      24.0000000   22.12500  7.81%     -    0s
H    0     0                      23.0000000   22.12500  3.80%     -    0s

Explored 0 nodes (217 simplex iterations) in 0.01 seconds
Thread count was 1 (of 4 available processors)

Optimal solution found (tolerance 0.00e+00)
Best objective 2.300000000000e+01, best bound 2.300000000000e+01, gap 0.0%
Preprocessing time: 0.00 seconds
Gurobi run time: 0.01 seconds
Total run time: 0.01 seconds
Objective: 23
Solution:
1 x [i=1, i=26]
1 x [i=1, i=29]
2 x [i=2, i=23]
1 x [i=2, i=24]
1 x [i=3, i=24]
2 x [i=4, i=20]
1 x [i=4, i=21]
2 x [i=5, i=17]
1 x [i=5, i=18]
1 x [i=6, i=17]
1 x [i=7, i=25]
1 x [i=8, i=15]
1 x [i=9, i=14]
1 x [i=10, i=13]
1 x [i=11, i=15]
1 x [i=12, i=12]
1 x [i=15, i=22, i=23]
1 x [i=16, i=19, i=25]
1 x [i=19, i=24, i=25, i=27]
1 x [i=28, i=28]
